\ENCODING=ISO-8859-1
\Problem name: IloCplex

Minimize
 obj: 30 p_1 + 3000 y_1 + 30 p_2 + 3000 y_2 + 30 p_3 + 3000 y_3 + 3 I_1_1
      + 3 I_2_1 + 3 I_3_1 + 3 I_4_1 + 3 I_1_2 + 3 I_2_2 + 3 I_3_2 + 3 I_4_2
      + 3 I_1_3 + 3 I_2_3 + 3 I_3_3 + 3 I_4_3 + 162.443481445312 z_1_0
      + 312.088409423828 z_1_1 + 312.088409423828 z_1_2
      + 654.244201660156 z_2_0 + 574.061950683594 z_2_1
      + 162.443481445312 z_2_2 + 312.088409423828 z_3_0
      + 654.244201660156 z_3_1 + 654.244201660156 z_3_2
      + 162.443481445312 z_0_0 + 162.443481445312 z_0_1
      + 162.443481445312 z_0_2
Subject To
 Production_1#0:            p_1 + I_0_0 - q_1_1 - q_2_1 - q_3_1 - q_4_1 - I_0_1
                             = 0
 Production_2#1:            p_2 + I_0_1 - q_1_2 - q_2_2 - q_3_2 - q_4_2 - I_0_2
                             = 0
 Production_3#2:            p_3 + I_0_2 - q_1_3 - q_2_3 - q_3_3 - q_4_3 - I_0_3
                             = 0
 Concervation(1_1)#3:       - I_1_1 + q_1_1 + I_1_0  = 10
 Concervation(2_1)#4:       I_1_1 - I_1_2 + q_1_2  = 20
 Concervation(3_1)#5:       I_1_2 - I_1_3 + q_1_3  = 30
 Concervation(1_2)#6:       - I_2_1 + q_2_1 + I_2_0  = 40
 Concervation(2_2)#7:       I_2_1 - I_2_2 + q_2_2  = 50
 Concervation(3_2)#8:       I_2_2 - I_2_3 + q_2_3  = 60
 Concervation(1_3)#9:       - I_3_1 + q_3_1 + I_3_0  = 70
 Concervation(2_3)#10:      I_3_1 - I_3_2 + q_3_2  = 80
 Concervation(3_3)#11:      I_3_2 - I_3_3 + q_3_3  = 90
 Concervation(1_4)#12:      - I_4_1 + q_4_1 + I_4_0  = 100
 Concervation(2_4)#13:      I_4_1 - I_4_2 + q_4_2  = 110
 Concervation(3_4)#14:      I_4_2 - I_4_3 + q_4_3  = 120
 c16#15:                    x51 + x52  = 1
 Setup(0)#16:               - y_1 + x51 <= 0
 c18#17:                    x53 + x54  = 1
 Setup(1)#18:               - y_2 + x53 <= 0
 c20#19:                    x55 + x56  = 1
 Setup(2)#20:               - y_3 + x55 <= 0
 CapaciteClient(1_1)#21:    q_1_1 + I_1_0 <= 2000
 CapaciteClient(2_1)#22:    I_1_1 + q_1_2 <= 2000
 CapaciteClient(3_1)#23:    I_1_2 + q_1_3 <= 2000
 CapaciteClient(1_2)#24:    q_2_1 + I_2_0 <= 4500
 CapaciteClient(2_2)#25:    I_2_1 + q_2_2 <= 4500
 CapaciteClient(3_2)#26:    I_2_2 + q_2_3 <= 4500
 CapaciteClient(1_3)#27:    q_3_1 + I_3_0 <= 4500
 CapaciteClient(2_3)#28:    I_3_1 + q_3_2 <= 4500
 CapaciteClient(3_3)#29:    I_3_2 + q_3_3 <= 4500
 CapaciteClient(1_4)#30:    q_4_1 + I_4_0 <= 1400
 CapaciteClient(2_4)#31:    I_4_1 + q_4_2 <= 1400
 CapaciteClient(3_4)#32:    I_4_2 + q_4_3 <= 1400
 CapaciteFournisseur(1)#33: I_0_0 <= 10000000000
 CapaciteFournisseur(2)#34: I_0_1 <= 10000000000
 CapaciteFournisseur(3)#35: I_0_2 <= 10000000000
 Z(Ie1;te1)#36:             - 32767 z_1_1 + q_2_2 <= 0
 Z(Ie1;te2)#37:             - 32767 z_1_2 + q_2_3 <= 0
 Z(Ie2;te1)#38:             - 32767 z_2_1 + q_3_2 <= 0
 Z(Ie2;te2)#39:             - 32767 z_2_2 + q_3_3 <= 0
 Z(Ie3;te1)#40:             - 32767 z_3_1 + q_4_2 <= 0
 Z(Ie3;te2)#41:             - 32767 z_3_2 + q_4_3 <= 0
 i1: x52 = 1 <-> p_1  = 0
 i2: x54 = 1 <-> p_2  = 0
 i3: x56 = 1 <-> p_3  = 0
Bounds
 0 <= y_1 <= 1
 0 <= y_2 <= 1
 0 <= y_3 <= 1
 0 <= I_1_1 <= 2000
 0 <= I_2_1 <= 4500
 0 <= I_3_1 <= 4500
 0 <= I_4_1 <= 1400
 0 <= I_1_2 <= 2000
 0 <= I_2_2 <= 4500
 0 <= I_3_2 <= 4500
 0 <= I_4_2 <= 1400
 0 <= I_1_3 <= 2000
 0 <= I_2_3 <= 4500
 0 <= I_3_3 <= 4500
 0 <= I_4_3 <= 1400
 0 <= z_1_0 <= 1
 0 <= z_1_1 <= 1
 0 <= z_1_2 <= 1
 0 <= z_2_0 <= 1
 0 <= z_2_1 <= 1
 0 <= z_2_2 <= 1
 0 <= z_3_0 <= 1
 0 <= z_3_1 <= 1
 0 <= z_3_2 <= 1
 0 <= z_0_0 <= 1
 0 <= z_0_1 <= 1
 0 <= z_0_2 <= 1
      I_0_0 = 1
 0 <= I_0_1 <= 10000000000
 0 <= I_0_2 <= 10000000000
 0 <= I_0_3 <= 10000000000
      I_1_0 = 2
      I_2_0 = 3
      I_3_0 = 4
      I_4_0 = 5
 0 <= x51 <= 1
 0 <= x52 <= 1
 0 <= x53 <= 1
 0 <= x54 <= 1
 0 <= x55 <= 1
 0 <= x56 <= 1
Binaries
 y_1  y_2  y_3  z_1_0  z_1_1  z_1_2  z_2_0  z_2_1  z_2_2  z_3_0  z_3_1  z_3_2 
 z_0_0  z_0_1  z_0_2  x51  x52  x53  x54  x55  x56 
End
